; sally-chc-benchmarks/./oral_messages/om1_with_relays_general_4_9_agreement_000.smt2
(set-logic HORN)

(declare-fun |invariant| ( Real Real Real Real Real Real Real Real Real Real Real Real Real Real Real Real Real Real Real Real Real Real Real Real Real Real Real Real Real Real Real Real Real Real Real Real Real Real Real Real Real Real Real Real Real Real Real Real Real Real Real Real Real Real Real Real Real Real Real Real Real Real Real Real Real Real Real Real Real Real Real Real Bool Bool Bool Bool Bool Bool Bool Bool Bool Bool Bool Bool Bool Real Real Real Real Real Real Real ) Bool)

(assert
  (forall ( (A Real) (B Real) (C Real) (D Real) (E Real) (F Real) (G Real) (H Real) (I Real) (J Real) (K Real) (L Real) (M Real) (N Real) (O Real) (P Real) (Q Real) (R Real) (S Real) (T Real) (U Real) (V Real) (W Real) (X Real) (Y Real) (Z Real) (A1 Real) (B1 Real) (C1 Real) (D1 Real) (E1 Real) (F1 Real) (G1 Real) (H1 Real) (I1 Real) (J1 Real) (K1 Real) (L1 Real) (M1 Real) (N1 Real) (O1 Real) (P1 Real) (Q1 Real) (R1 Real) (S1 Real) (T1 Real) (U1 Real) (V1 Real) (W1 Real) (X1 Real) (Y1 Real) (Z1 Real) (A2 Real) (B2 Real) (C2 Real) (D2 Real) (E2 Real) (F2 Real) (G2 Real) (H2 Real) (I2 Real) (J2 Real) (K2 Real) (L2 Real) (M2 Real) (N2 Real) (O2 Real) (P2 Real) (Q2 Real) (R2 Real) (S2 Real) (T2 Real) (U2 Bool) (V2 Bool) (W2 Bool) (X2 Bool) (Y2 Bool) (Z2 Bool) (A3 Bool) (B3 Bool) (C3 Bool) (D3 Bool) (E3 Bool) (F3 Bool) (G3 Bool) (H3 Real) (I3 Real) (J3 Real) (K3 Real) (L3 Real) (M3 Real) (N3 Real) ) 
    (=>
      (and
        (and (= L3 0.0)
     (= T2 0.0)
     (= S2 0.0)
     (= R2 0.0)
     (= Q2 0.0)
     (= P2 0.0)
     (= O2 0.0)
     (= N2 0.0)
     (= M2 0.0)
     (= L2 0.0)
     (= K2 0.0)
     (= J2 0.0)
     (= I2 0.0)
     (= H2 0.0)
     (= G2 0.0)
     (= F2 0.0)
     (= E2 0.0)
     (= D2 0.0)
     (= C2 0.0)
     (= B2 0.0)
     (= A2 0.0)
     (= Z1 0.0)
     (= Y1 0.0)
     (= X1 0.0)
     (= W1 0.0)
     (= V1 0.0)
     (= U1 0.0)
     (= T1 0.0)
     (= S1 0.0)
     (= R1 0.0)
     (= Q1 0.0)
     (= P1 0.0)
     (= O1 0.0)
     (= N1 0.0)
     (= M1 0.0)
     (= L1 0.0)
     (= K1 0.0)
     (= J1 0.0)
     (= I1 0.0)
     (= H1 0.0)
     (= G1 0.0)
     (= F1 0.0)
     (= E1 0.0)
     (= D1 0.0)
     (= C1 0.0)
     (= B1 0.0)
     (= A1 0.0)
     (= Z 0.0)
     (= Y 0.0)
     (= X 0.0)
     (= W 0.0)
     (= V 0.0)
     (= U 0.0)
     (= T 0.0)
     (= S 0.0)
     (= R 0.0)
     (= Q 0.0)
     (= P 0.0)
     (= O 0.0)
     (= N 0.0)
     (= M 0.0)
     (= L 0.0)
     (= K 0.0)
     (= J 0.0)
     (= I 0.0)
     (= H 0.0)
     (= G 0.0)
     (= F 0.0)
     (= E 0.0)
     (= D 0.0)
     (= C 0.0)
     (= B 0.0)
     (= A 0.0)
     (or (and (not Y2) Z2 A3 B3 C3 D3 E3 F3 G3)
         (and Y2 (not Z2) A3 B3 C3 D3 E3 F3 G3)
         (and Y2 Z2 (not A3) B3 C3 D3 E3 F3 G3)
         (and Y2 Z2 A3 (not B3) C3 D3 E3 F3 G3)
         (and Y2 Z2 A3 B3 (not C3) D3 E3 F3 G3)
         (and Y2 Z2 A3 B3 C3 (not D3) E3 F3 G3)
         (and Y2 Z2 A3 B3 C3 D3 (not E3) F3 G3)
         (and Y2 Z2 A3 B3 C3 D3 E3 (not F3) G3)
         (and Y2 Z2 A3 B3 C3 D3 E3 F3 (not G3)))
     (or (= M3 1.0) (= M3 2.0) (= M3 3.0) (= M3 4.0))
     (= X2 true)
     (= W2 true)
     (= V2 true)
     (= U2 true)
     (not (= N3 0.0)))
      )
      (invariant A
           B
           C
           D
           E
           F
           G
           H
           I
           J
           K
           L
           M
           N
           O
           P
           Q
           R
           S
           T
           U
           V
           W
           X
           Y
           Z
           A1
           B1
           C1
           D1
           E1
           F1
           G1
           H1
           I1
           J1
           K1
           L1
           M1
           N1
           O1
           P1
           Q1
           R1
           S1
           T1
           U1
           V1
           W1
           X1
           Y1
           Z1
           A2
           B2
           C2
           D2
           E2
           F2
           G2
           H2
           I2
           J2
           K2
           L2
           M2
           N2
           O2
           P2
           Q2
           R2
           S2
           T2
           U2
           V2
           W2
           X2
           Y2
           Z2
           A3
           B3
           C3
           D3
           E3
           F3
           G3
           H3
           I3
           J3
           K3
           L3
           M3
           N3)
    )
  )
)
(assert
  (forall ( (A Real) (B Real) (C Real) (D Real) (E Real) (F Real) (G Real) (H Real) (I Real) (J Real) (K Real) (L Real) (M Real) (N Real) (O Real) (P Real) (Q Real) (R Real) (S Real) (T Real) (U Real) (V Real) (W Real) (X Real) (Y Real) (Z Real) (A1 Real) (B1 Real) (C1 Real) (D1 Real) (E1 Real) (F1 Real) (G1 Real) (H1 Real) (I1 Real) (J1 Real) (K1 Real) (L1 Real) (M1 Real) (N1 Real) (O1 Real) (P1 Real) (Q1 Real) (R1 Real) (S1 Real) (T1 Real) (U1 Real) (V1 Real) (W1 Real) (X1 Real) (Y1 Real) (Z1 Real) (A2 Real) (B2 Real) (C2 Real) (D2 Real) (E2 Real) (F2 Real) (G2 Real) (H2 Real) (I2 Real) (J2 Real) (K2 Real) (L2 Real) (M2 Real) (N2 Real) (O2 Real) (P2 Real) (Q2 Real) (R2 Real) (S2 Real) (T2 Real) (U2 Real) (V2 Real) (W2 Real) (X2 Real) (Y2 Real) (Z2 Real) (A3 Real) (B3 Real) (C3 Real) (D3 Real) (E3 Real) (F3 Real) (G3 Real) (H3 Real) (I3 Real) (J3 Real) (K3 Real) (L3 Real) (M3 Real) (N3 Real) (O3 Real) (P3 Real) (Q3 Real) (R3 Real) (S3 Real) (T3 Real) (U3 Real) (V3 Real) (W3 Real) (X3 Real) (Y3 Real) (Z3 Real) (A4 Real) (B4 Real) (C4 Real) (D4 Real) (E4 Real) (F4 Real) (G4 Real) (H4 Real) (I4 Real) (J4 Real) (K4 Real) (L4 Real) (M4 Real) (N4 Real) (O4 Real) (P4 Real) (Q4 Real) (R4 Real) (S4 Real) (T4 Real) (U4 Real) (V4 Real) (W4 Real) (X4 Real) (Y4 Real) (Z4 Real) (A5 Real) (B5 Real) (C5 Real) (D5 Real) (E5 Real) (F5 Real) (G5 Real) (H5 Real) (I5 Real) (J5 Real) (K5 Real) (L5 Real) (M5 Real) (N5 Real) (O5 Bool) (P5 Bool) (Q5 Bool) (R5 Bool) (S5 Bool) (T5 Bool) (U5 Bool) (V5 Bool) (W5 Bool) (X5 Bool) (Y5 Bool) (Z5 Bool) (A6 Bool) (B6 Bool) (C6 Bool) (D6 Bool) (E6 Bool) (F6 Bool) (G6 Bool) (H6 Bool) (I6 Bool) (J6 Bool) (K6 Bool) (L6 Bool) (M6 Bool) (N6 Bool) (O6 Real) (P6 Real) (Q6 Real) (R6 Real) (S6 Real) (T6 Real) (U6 Real) (V6 Real) (W6 Real) (X6 Real) (Y6 Real) (Z6 Real) (A7 Real) (B7 Real) ) 
    (=>
      (and
        (invariant A
           C
           E
           G
           I
           K
           M
           O
           Q
           S
           U
           W
           Y
           A1
           C1
           E1
           G1
           I1
           K1
           M1
           O1
           Q1
           S1
           U1
           W1
           Y1
           A2
           C2
           E2
           G2
           I2
           K2
           M2
           O2
           Q2
           S2
           U2
           W2
           Y2
           A3
           C3
           E3
           G3
           I3
           K3
           M3
           O3
           Q3
           S3
           U3
           W3
           Y3
           A4
           C4
           E4
           G4
           I4
           K4
           M4
           O4
           Q4
           S4
           U4
           W4
           Y4
           A5
           C5
           E5
           G5
           I5
           K5
           M5
           O5
           Q5
           S5
           U5
           W5
           Y5
           A6
           C6
           E6
           G6
           I6
           K6
           M6
           O6
           Q6
           S6
           U6
           W6
           Y6
           A7)
        (let ((a!1 (and (or (not O5)
                    (and (= B A7)
                         (= D A7)
                         (= F A7)
                         (= H A7)
                         (= J A7)
                         (= L A7)
                         (= N A7)
                         (= P A7)
                         (= R A7))
                    (not (= 1.0 Y6)))
                (or (not O5)
                    (and (= B 0.0)
                         (= D 0.0)
                         (= F 0.0)
                         (= H 0.0)
                         (= J 0.0)
                         (= L 0.0)
                         (= N 0.0)
                         (= P 0.0)
                         (= R 0.0))
                    (= 1.0 Y6))
                (or (not Q5)
                    (and (= T A7)
                         (= V A7)
                         (= X A7)
                         (= Z A7)
                         (= B1 A7)
                         (= D1 A7)
                         (= F1 A7)
                         (= H1 A7)
                         (= J1 A7))
                    (not (= 2.0 Y6)))
                (or (not Q5)
                    (and (= T 0.0)
                         (= V 0.0)
                         (= X 0.0)
                         (= Z 0.0)
                         (= B1 0.0)
                         (= D1 0.0)
                         (= F1 0.0)
                         (= H1 0.0)
                         (= J1 0.0))
                    (= 2.0 Y6))
                (or (not S5)
                    (and (= L1 A7)
                         (= N1 A7)
                         (= P1 A7)
                         (= R1 A7)
                         (= T1 A7)
                         (= V1 A7)
                         (= X1 A7)
                         (= Z1 A7)
                         (= B2 A7))
                    (not (= 3.0 Y6)))
                (or (not S5)
                    (and (= L1 0.0)
                         (= N1 0.0)
                         (= P1 0.0)
                         (= R1 0.0)
                         (= T1 0.0)
                         (= V1 0.0)
                         (= X1 0.0)
                         (= Z1 0.0)
                         (= B2 0.0))
                    (= 3.0 Y6))
                (or (not U5)
                    (and (= D2 A7)
                         (= F2 A7)
                         (= H2 A7)
                         (= J2 A7)
                         (= L2 A7)
                         (= N2 A7)
                         (= P2 A7)
                         (= R2 A7)
                         (= T2 A7))
                    (not (= 4.0 Y6)))
                (or (not U5)
                    (and (= D2 0.0)
                         (= F2 0.0)
                         (= H2 0.0)
                         (= J2 0.0)
                         (= L2 0.0)
                         (= N2 0.0)
                         (= P2 0.0)
                         (= R2 0.0)
                         (= T2 0.0))
                    (= 4.0 Y6))
                (= P3 O3)
                (= R3 Q3)
                (= T3 S3)
                (= V3 U3)
                (= X3 W3)
                (= Z3 Y3)
                (= B4 A4)
                (= D4 C4)
                (= F4 E4)
                (= H4 G4)
                (= J4 I4)
                (= L4 K4)
                (= N4 M4)
                (= P4 O4)
                (= R4 Q4)
                (= T4 S4)
                (= V4 U4)
                (= X4 W4)
                (= Z4 Y4)
                (= B5 A5)
                (= D5 C5)
                (= F5 E5)
                (= H5 G5)
                (= J5 I5)
                (= L5 K5)
                (= N5 M5)
                (= V6 U6)
                (= W6 0.0)
                (= X6 1.0)
                (= V2 U2)
                (= X2 W2)
                (= Z2 Y2)
                (= B3 A3)
                (= D3 C3)
                (= F3 E3)
                (= H3 G3)
                (= J3 I3)
                (= L3 K3)
                (= N3 M3)
                (= P6 O6)
                (= R6 Q6)
                (= T6 S6)
                (= J6 I6)
                (= L6 K6)
                (= N6 M6)
                (= P5 O5)
                (= R5 Q5)
                (= T5 S5)
                (= V5 U5)
                (= X5 W5)
                (= Z5 Y5)
                (= B6 A6)
                (= D6 C6)
                (= F6 E6)
                (= H6 G6)))
      (a!2 (ite (= Y6 4.0) O2 (ite (= Y6 3.0) W1 (ite (= Y6 2.0) E1 M))))
      (a!3 (ite (= Y6 4.0) Q2 (ite (= Y6 3.0) Y1 (ite (= Y6 2.0) G1 O))))
      (a!4 (ite (= Y6 4.0) S2 (ite (= Y6 3.0) A2 (ite (= Y6 2.0) I1 Q))))
      (a!5 (ite (= Y6 4.0) C2 (ite (= Y6 3.0) K1 (ite (= Y6 2.0) S A))))
      (a!6 (ite (= Y6 4.0) E2 (ite (= Y6 3.0) M1 (ite (= Y6 2.0) U C))))
      (a!7 (ite (= Y6 4.0) G2 (ite (= Y6 3.0) O1 (ite (= Y6 2.0) W E))))
      (a!8 (ite (= Y6 4.0) I2 (ite (= Y6 3.0) Q1 (ite (= Y6 2.0) Y G))))
      (a!9 (ite (= Y6 4.0) K2 (ite (= Y6 3.0) S1 (ite (= Y6 2.0) A1 I))))
      (a!10 (ite (= Y6 4.0) M2 (ite (= Y6 3.0) U1 (ite (= Y6 2.0) C1 K))))
      (a!11 (ite (= G3 K3)
                 (+ 1 (ite (= I3 K3) 2 0))
                 (+ (- 1) (ite (= I3 K3) 2 0))))
      (a!37 (ite (= Y3 C4)
                 (+ 1 (ite (= A4 C4) 2 0))
                 (+ (- 1) (ite (= A4 C4) 2 0))))
      (a!63 (ite (= Q4 U4)
                 (+ 1 (ite (= S4 U4) 2 0))
                 (+ (- 1) (ite (= S4 U4) 2 0))))
      (a!89 (ite (= I5 M5)
                 (+ 1 (ite (= K5 M5) 2 0))
                 (+ (- 1) (ite (= K5 M5) 2 0)))))
(let ((a!12 (ite (= E3 (ite (= I3 K3) K3 G3))
                 (+ 1 (ite (= I3 K3) a!11 1))
                 (+ (- 1) (ite (= I3 K3) a!11 1))))
      (a!14 (ite (= (ite (= I3 K3) a!11 1) 0) E3 (ite (= I3 K3) K3 G3)))
      (a!38 (ite (= W3 (ite (= A4 C4) C4 Y3))
                 (+ 1 (ite (= A4 C4) a!37 1))
                 (+ (- 1) (ite (= A4 C4) a!37 1))))
      (a!40 (ite (= (ite (= A4 C4) a!37 1) 0) W3 (ite (= A4 C4) C4 Y3)))
      (a!64 (ite (= O4 (ite (= S4 U4) U4 Q4))
                 (+ 1 (ite (= S4 U4) a!63 1))
                 (+ (- 1) (ite (= S4 U4) a!63 1))))
      (a!66 (ite (= (ite (= S4 U4) a!63 1) 0) O4 (ite (= S4 U4) U4 Q4)))
      (a!90 (ite (= G5 (ite (= K5 M5) M5 I5))
                 (+ 1 (ite (= K5 M5) a!89 1))
                 (+ (- 1) (ite (= K5 M5) a!89 1))))
      (a!92 (ite (= (ite (= K5 M5) a!89 1) 0) G5 (ite (= K5 M5) M5 I5))))
(let ((a!13 (ite (= (ite (= I3 K3) a!11 1) 0) 1 a!12))
      (a!39 (ite (= (ite (= A4 C4) a!37 1) 0) 1 a!38))
      (a!65 (ite (= (ite (= S4 U4) a!63 1) 0) 1 a!64))
      (a!91 (ite (= (ite (= K5 M5) a!89 1) 0) 1 a!90)))
(let ((a!15 (ite (= a!13 0) 1 (ite (= C3 a!14) (+ 1 a!13) (+ (- 1) a!13))))
      (a!41 (ite (= a!39 0) 1 (ite (= U3 a!40) (+ 1 a!39) (+ (- 1) a!39))))
      (a!67 (ite (= a!65 0) 1 (ite (= M4 a!66) (+ 1 a!65) (+ (- 1) a!65))))
      (a!93 (ite (= a!91 0) 1 (ite (= E5 a!92) (+ 1 a!91) (+ (- 1) a!91)))))
(let ((a!16 (ite (= A3 (ite (= a!13 0) C3 a!14)) (+ 1 a!15) (+ (- 1) a!15)))
      (a!17 (ite (= a!15 0) A3 (ite (= a!13 0) C3 a!14)))
      (a!42 (ite (= S3 (ite (= a!39 0) U3 a!40)) (+ 1 a!41) (+ (- 1) a!41)))
      (a!43 (ite (= a!41 0) S3 (ite (= a!39 0) U3 a!40)))
      (a!68 (ite (= K4 (ite (= a!65 0) M4 a!66)) (+ 1 a!67) (+ (- 1) a!67)))
      (a!69 (ite (= a!67 0) K4 (ite (= a!65 0) M4 a!66)))
      (a!94 (ite (= C5 (ite (= a!91 0) E5 a!92)) (+ 1 a!93) (+ (- 1) a!93)))
      (a!95 (ite (= a!93 0) C5 (ite (= a!91 0) E5 a!92))))
(let ((a!18 (ite (= Y2 a!17)
                 (+ 1 (ite (= a!15 0) 1 a!16))
                 (+ (- 1) (ite (= a!15 0) 1 a!16))))
      (a!20 (ite (= (ite (= a!15 0) 1 a!16) 0) Y2 a!17))
      (a!44 (ite (= Q3 a!43)
                 (+ 1 (ite (= a!41 0) 1 a!42))
                 (+ (- 1) (ite (= a!41 0) 1 a!42))))
      (a!46 (ite (= (ite (= a!41 0) 1 a!42) 0) Q3 a!43))
      (a!70 (ite (= I4 a!69)
                 (+ 1 (ite (= a!67 0) 1 a!68))
                 (+ (- 1) (ite (= a!67 0) 1 a!68))))
      (a!72 (ite (= (ite (= a!67 0) 1 a!68) 0) I4 a!69))
      (a!96 (ite (= A5 a!95)
                 (+ 1 (ite (= a!93 0) 1 a!94))
                 (+ (- 1) (ite (= a!93 0) 1 a!94))))
      (a!98 (ite (= (ite (= a!93 0) 1 a!94) 0) A5 a!95)))
(let ((a!19 (ite (= (ite (= a!15 0) 1 a!16) 0) 1 a!18))
      (a!45 (ite (= (ite (= a!41 0) 1 a!42) 0) 1 a!44))
      (a!71 (ite (= (ite (= a!67 0) 1 a!68) 0) 1 a!70))
      (a!97 (ite (= (ite (= a!93 0) 1 a!94) 0) 1 a!96)))
(let ((a!21 (= (ite (= a!19 0) 1 (ite (= W2 a!20) (+ 1 a!19) (+ (- 1) a!19))) 0))
      (a!47 (= (ite (= a!45 0) 1 (ite (= O3 a!46) (+ 1 a!45) (+ (- 1) a!45))) 0))
      (a!73 (= (ite (= a!71 0) 1 (ite (= G4 a!72) (+ 1 a!71) (+ (- 1) a!71))) 0))
      (a!99 (= (ite (= a!97 0) 1 (ite (= Y4 a!98) (+ 1 a!97) (+ (- 1) a!97))) 0)))
(let ((a!22 (= U2 (ite a!21 U2 (ite (= a!19 0) W2 a!20))))
      (a!23 (= W2 (ite a!21 U2 (ite (= a!19 0) W2 a!20))))
      (a!24 (= Y2 (ite a!21 U2 (ite (= a!19 0) W2 a!20))))
      (a!25 (= A3 (ite a!21 U2 (ite (= a!19 0) W2 a!20))))
      (a!26 (= C3 (ite a!21 U2 (ite (= a!19 0) W2 a!20))))
      (a!27 (= E3 (ite a!21 U2 (ite (= a!19 0) W2 a!20))))
      (a!28 (= G3 (ite a!21 U2 (ite (= a!19 0) W2 a!20))))
      (a!29 (= I3 (ite a!21 U2 (ite (= a!19 0) W2 a!20))))
      (a!30 (= K3 (ite a!21 U2 (ite (= a!19 0) W2 a!20))))
      (a!48 (= O3 (ite a!47 M3 (ite (= a!45 0) O3 a!46))))
      (a!49 (= Q3 (ite a!47 M3 (ite (= a!45 0) O3 a!46))))
      (a!50 (= S3 (ite a!47 M3 (ite (= a!45 0) O3 a!46))))
      (a!51 (= U3 (ite a!47 M3 (ite (= a!45 0) O3 a!46))))
      (a!52 (= W3 (ite a!47 M3 (ite (= a!45 0) O3 a!46))))
      (a!53 (= Y3 (ite a!47 M3 (ite (= a!45 0) O3 a!46))))
      (a!54 (= A4 (ite a!47 M3 (ite (= a!45 0) O3 a!46))))
      (a!55 (= C4 (ite a!47 M3 (ite (= a!45 0) O3 a!46))))
      (a!60 (= M3 (ite a!47 M3 (ite (= a!45 0) O3 a!46))))
      (a!74 (= E4 (ite a!73 E4 (ite (= a!71 0) G4 a!72))))
      (a!75 (= G4 (ite a!73 E4 (ite (= a!71 0) G4 a!72))))
      (a!76 (= I4 (ite a!73 E4 (ite (= a!71 0) G4 a!72))))
      (a!77 (= K4 (ite a!73 E4 (ite (= a!71 0) G4 a!72))))
      (a!78 (= M4 (ite a!73 E4 (ite (= a!71 0) G4 a!72))))
      (a!79 (= O4 (ite a!73 E4 (ite (= a!71 0) G4 a!72))))
      (a!80 (= Q4 (ite a!73 E4 (ite (= a!71 0) G4 a!72))))
      (a!81 (= S4 (ite a!73 E4 (ite (= a!71 0) G4 a!72))))
      (a!82 (= U4 (ite a!73 E4 (ite (= a!71 0) G4 a!72))))
      (a!100 (= W4 (ite a!99 W4 (ite (= a!97 0) Y4 a!98))))
      (a!101 (= Y4 (ite a!99 W4 (ite (= a!97 0) Y4 a!98))))
      (a!102 (= A5 (ite a!99 W4 (ite (= a!97 0) Y4 a!98))))
      (a!103 (= C5 (ite a!99 W4 (ite (= a!97 0) Y4 a!98))))
      (a!104 (= E5 (ite a!99 W4 (ite (= a!97 0) Y4 a!98))))
      (a!105 (= G5 (ite a!99 W4 (ite (= a!97 0) Y4 a!98))))
      (a!106 (= I5 (ite a!99 W4 (ite (= a!97 0) Y4 a!98))))
      (a!107 (= K5 (ite a!99 W4 (ite (= a!97 0) Y4 a!98))))
      (a!108 (= M5 (ite a!99 W4 (ite (= a!97 0) Y4 a!98)))))
(let ((a!31 (ite a!29 (+ (- 1) (ite a!30 4 5)) (ite a!30 4 5)))
      (a!56 (ite a!54 (+ (- 1) (ite a!55 4 5)) (ite a!55 4 5)))
      (a!83 (ite a!81 (+ (- 1) (ite a!82 4 5)) (ite a!82 4 5)))
      (a!109 (ite a!107 (+ (- 1) (ite a!108 4 5)) (ite a!108 4 5))))
(let ((a!32 (ite a!27
                 (+ (- 1) (ite a!28 (+ (- 1) a!31) a!31))
                 (ite a!28 (+ (- 1) a!31) a!31)))
      (a!57 (ite a!52
                 (+ (- 1) (ite a!53 (+ (- 1) a!56) a!56))
                 (ite a!53 (+ (- 1) a!56) a!56)))
      (a!84 (ite a!79
                 (+ (- 1) (ite a!80 (+ (- 1) a!83) a!83))
                 (ite a!80 (+ (- 1) a!83) a!83)))
      (a!110 (ite a!105
                  (+ (- 1) (ite a!106 (+ (- 1) a!109) a!109))
                  (ite a!106 (+ (- 1) a!109) a!109))))
(let ((a!33 (ite a!25
                 (+ (- 1) (ite a!26 (+ (- 1) a!32) a!32))
                 (ite a!26 (+ (- 1) a!32) a!32)))
      (a!58 (ite a!50
                 (+ (- 1) (ite a!51 (+ (- 1) a!57) a!57))
                 (ite a!51 (+ (- 1) a!57) a!57)))
      (a!85 (ite a!77
                 (+ (- 1) (ite a!78 (+ (- 1) a!84) a!84))
                 (ite a!78 (+ (- 1) a!84) a!84)))
      (a!111 (ite a!103
                  (+ (- 1) (ite a!104 (+ (- 1) a!110) a!110))
                  (ite a!104 (+ (- 1) a!110) a!110))))
(let ((a!34 (ite a!23
                 (+ (- 1) (ite a!24 (+ (- 1) a!33) a!33))
                 (ite a!24 (+ (- 1) a!33) a!33)))
      (a!59 (ite a!48
                 (+ (- 1) (ite a!49 (+ (- 1) a!58) a!58))
                 (ite a!49 (+ (- 1) a!58) a!58)))
      (a!86 (ite a!75
                 (+ (- 1) (ite a!76 (+ (- 1) a!85) a!85))
                 (ite a!76 (+ (- 1) a!85) a!85)))
      (a!112 (ite a!101
                  (+ (- 1) (ite a!102 (+ (- 1) a!111) a!111))
                  (ite a!102 (+ (- 1) a!111) a!111))))
(let ((a!35 (or (= (ite a!22 (+ (- 1) a!34) a!34) 0)
                (= a!34 0)
                (= (ite a!24 (+ (- 1) a!33) a!33) 0)
                (= a!33 0)
                (= (ite a!26 (+ (- 1) a!32) a!32) 0)
                (= a!32 0)
                (= (ite a!28 (+ (- 1) a!31) a!31) 0)))
      (a!61 (or (= a!59 0)
                (= (ite a!49 (+ (- 1) a!58) a!58) 0)
                (= a!58 0)
                (= (ite a!51 (+ (- 1) a!57) a!57) 0)
                (= a!57 0)
                (= (ite a!53 (+ (- 1) a!56) a!56) 0)
                (= (ite a!60 (+ (- 1) a!59) a!59) 0)))
      (a!87 (or (= (ite a!74 (+ (- 1) a!86) a!86) 0)
                (= a!86 0)
                (= (ite a!76 (+ (- 1) a!85) a!85) 0)
                (= a!85 0)
                (= (ite a!78 (+ (- 1) a!84) a!84) 0)
                (= a!84 0)
                (= (ite a!80 (+ (- 1) a!83) a!83) 0)))
      (a!113 (or (= (ite a!100 (+ (- 1) a!112) a!112) 0)
                 (= a!112 0)
                 (= (ite a!102 (+ (- 1) a!111) a!111) 0)
                 (= a!111 0)
                 (= (ite a!104 (+ (- 1) a!110) a!110) 0)
                 (= a!110 0)
                 (= (ite a!106 (+ (- 1) a!109) a!109) 0))))
(let ((a!36 (ite a!35 (ite a!21 U2 (ite (= a!19 0) W2 a!20)) 0.0))
      (a!62 (ite a!61 (ite a!47 M3 (ite (= a!45 0) O3 a!46)) 0.0))
      (a!88 (ite a!87 (ite a!73 E4 (ite (= a!71 0) G4 a!72)) 0.0))
      (a!114 (ite a!113 (ite a!99 W4 (ite (= a!97 0) Y4 a!98)) 0.0)))
(let ((a!115 (or a!1
                 (and (or (not I6) (= Z3 a!2))
                      (or (not I6) (= R4 a!2))
                      (or (not I6) (= J5 a!2))
                      (or (not I6) (= H3 a!2))
                      (or (not K6) (= B4 a!3))
                      (or (not K6) (= T4 a!3))
                      (or (not K6) (= L5 a!3))
                      (or (not K6) (= J3 a!3))
                      (or (not M6) (= D4 a!4))
                      (or (not M6) (= V4 a!4))
                      (or (not M6) (= N5 a!4))
                      (or (not M6) (= L3 a!4))
                      (or (not W5) (= F4 a!5))
                      (or (not W5) (= X4 a!5))
                      (or (not W5) (= V2 a!5))
                      (or (not W5) (= N3 a!5))
                      (or (not Y5) (= P3 a!6))
                      (or (not Y5) (= H4 a!6))
                      (or (not Y5) (= Z4 a!6))
                      (or (not Y5) (= X2 a!6))
                      (or (not A6) (= R3 a!7))
                      (or (not A6) (= J4 a!7))
                      (or (not A6) (= B5 a!7))
                      (or (not A6) (= Z2 a!7))
                      (or (not C6) (= T3 a!8))
                      (or (not C6) (= L4 a!8))
                      (or (not C6) (= D5 a!8))
                      (or (not C6) (= B3 a!8))
                      (or (not E6) (= V3 a!9))
                      (or (not E6) (= N4 a!9))
                      (or (not E6) (= F5 a!9))
                      (or (not E6) (= D3 a!9))
                      (or (not G6) (= X3 a!10))
                      (or (not G6) (= P4 a!10))
                      (or (not G6) (= H5 a!10))
                      (or (not G6) (= F3 a!10))
                      (= V6 U6)
                      (= W6 1.0)
                      (= X6 2.0)
                      (= B A)
                      (= D C)
                      (= F E)
                      (= H G)
                      (= J I)
                      (= L K)
                      (= N M)
                      (= P O)
                      (= R Q)
                      (= T S)
                      (= V U)
                      (= X W)
                      (= Z Y)
                      (= B1 A1)
                      (= D1 C1)
                      (= F1 E1)
                      (= H1 G1)
                      (= J1 I1)
                      (= L1 K1)
                      (= N1 M1)
                      (= P1 O1)
                      (= R1 Q1)
                      (= T1 S1)
                      (= V1 U1)
                      (= X1 W1)
                      (= Z1 Y1)
                      (= B2 A2)
                      (= D2 C2)
                      (= F2 E2)
                      (= H2 G2)
                      (= J2 I2)
                      (= L2 K2)
                      (= N2 M2)
                      (= P2 O2)
                      (= R2 Q2)
                      (= T2 S2)
                      (= P6 O6)
                      (= R6 Q6)
                      (= T6 S6)
                      (= J6 I6)
                      (= L6 K6)
                      (= N6 M6)
                      (= P5 O5)
                      (= R5 Q5)
                      (= T5 S5)
                      (= V5 U5)
                      (= X5 W5)
                      (= Z5 Y5)
                      (= B6 A6)
                      (= D6 C6)
                      (= F6 E6)
                      (= H6 G6))
                 (and (or (not O5) (= P6 a!36))
                      (or (not Q5) (= R6 a!62))
                      (or (not S5) (= T6 a!88))
                      (or (not U5) (= V6 a!114))
                      (= P3 O3)
                      (= R3 Q3)
                      (= T3 S3)
                      (= V3 U3)
                      (= X3 W3)
                      (= Z3 Y3)
                      (= B4 A4)
                      (= D4 C4)
                      (= F4 E4)
                      (= H4 G4)
                      (= J4 I4)
                      (= L4 K4)
                      (= N4 M4)
                      (= P4 O4)
                      (= R4 Q4)
                      (= T4 S4)
                      (= V4 U4)
                      (= X4 W4)
                      (= Z4 Y4)
                      (= B5 A5)
                      (= D5 C5)
                      (= F5 E5)
                      (= H5 G5)
                      (= J5 I5)
                      (= L5 K5)
                      (= N5 M5)
                      (= W6 2.0)
                      (= X6 3.0)
                      (= B A)
                      (= D C)
                      (= F E)
                      (= H G)
                      (= J I)
                      (= L K)
                      (= N M)
                      (= P O)
                      (= R Q)
                      (= T S)
                      (= V U)
                      (= X W)
                      (= Z Y)
                      (= B1 A1)
                      (= D1 C1)
                      (= F1 E1)
                      (= H1 G1)
                      (= J1 I1)
                      (= L1 K1)
                      (= N1 M1)
                      (= P1 O1)
                      (= R1 Q1)
                      (= T1 S1)
                      (= V1 U1)
                      (= X1 W1)
                      (= Z1 Y1)
                      (= B2 A2)
                      (= D2 C2)
                      (= F2 E2)
                      (= H2 G2)
                      (= J2 I2)
                      (= L2 K2)
                      (= N2 M2)
                      (= P2 O2)
                      (= R2 Q2)
                      (= T2 S2)
                      (= V2 U2)
                      (= X2 W2)
                      (= Z2 Y2)
                      (= B3 A3)
                      (= D3 C3)
                      (= F3 E3)
                      (= H3 G3)
                      (= J3 I3)
                      (= L3 K3)
                      (= N3 M3)
                      (= J6 I6)
                      (= L6 K6)
                      (= N6 M6)
                      (= P5 O5)
                      (= R5 Q5)
                      (= T5 S5)
                      (= V5 U5)
                      (= X5 W5)
                      (= Z5 Y5)
                      (= B6 A6)
                      (= D6 C6)
                      (= F6 E6)
                      (= H6 G6))
                 (and (= P3 O3)
                      (= R3 Q3)
                      (= T3 S3)
                      (= V3 U3)
                      (= X3 W3)
                      (= Z3 Y3)
                      (= B4 A4)
                      (= D4 C4)
                      (= F4 E4)
                      (= H4 G4)
                      (= J4 I4)
                      (= L4 K4)
                      (= N4 M4)
                      (= P4 O4)
                      (= R4 Q4)
                      (= T4 S4)
                      (= V4 U4)
                      (= X4 W4)
                      (= Z4 Y4)
                      (= B5 A5)
                      (= D5 C5)
                      (= F5 E5)
                      (= H5 G5)
                      (= J5 I5)
                      (= L5 K5)
                      (= N5 M5)
                      (= V6 U6)
                      (= W6 3.0)
                      (= X6 W6)
                      (= B A)
                      (= D C)
                      (= F E)
                      (= H G)
                      (= J I)
                      (= L K)
                      (= N M)
                      (= P O)
                      (= R Q)
                      (= T S)
                      (= V U)
                      (= X W)
                      (= Z Y)
                      (= B1 A1)
                      (= D1 C1)
                      (= F1 E1)
                      (= H1 G1)
                      (= J1 I1)
                      (= L1 K1)
                      (= N1 M1)
                      (= P1 O1)
                      (= R1 Q1)
                      (= T1 S1)
                      (= V1 U1)
                      (= X1 W1)
                      (= Z1 Y1)
                      (= B2 A2)
                      (= D2 C2)
                      (= F2 E2)
                      (= H2 G2)
                      (= J2 I2)
                      (= L2 K2)
                      (= N2 M2)
                      (= P2 O2)
                      (= R2 Q2)
                      (= T2 S2)
                      (= V2 U2)
                      (= X2 W2)
                      (= Z2 Y2)
                      (= B3 A3)
                      (= D3 C3)
                      (= F3 E3)
                      (= H3 G3)
                      (= J3 I3)
                      (= L3 K3)
                      (= N3 M3)
                      (= P6 O6)
                      (= R6 Q6)
                      (= T6 S6)
                      (= J6 I6)
                      (= L6 K6)
                      (= N6 M6)
                      (= P5 O5)
                      (= R5 Q5)
                      (= T5 S5)
                      (= V5 U5)
                      (= X5 W5)
                      (= Z5 Y5)
                      (= B6 A6)
                      (= D6 C6)
                      (= F6 E6)
                      (= H6 G6)))))
  (and (= Z6 Y6) a!115 (= B7 A7))))))))))))))))))
      )
      (invariant B
           D
           F
           H
           J
           L
           N
           P
           R
           T
           V
           X
           Z
           B1
           D1
           F1
           H1
           J1
           L1
           N1
           P1
           R1
           T1
           V1
           X1
           Z1
           B2
           D2
           F2
           H2
           J2
           L2
           N2
           P2
           R2
           T2
           V2
           X2
           Z2
           B3
           D3
           F3
           H3
           J3
           L3
           N3
           P3
           R3
           T3
           V3
           X3
           Z3
           B4
           D4
           F4
           H4
           J4
           L4
           N4
           P4
           R4
           T4
           V4
           X4
           Z4
           B5
           D5
           F5
           H5
           J5
           L5
           N5
           P5
           R5
           T5
           V5
           X5
           Z5
           B6
           D6
           F6
           H6
           J6
           L6
           N6
           P6
           R6
           T6
           V6
           X6
           Z6
           B7)
    )
  )
)
(assert
  (forall ( (A Real) (B Real) (C Real) (D Real) (E Real) (F Real) (G Real) (H Real) (I Real) (J Real) (K Real) (L Real) (M Real) (N Real) (O Real) (P Real) (Q Real) (R Real) (S Real) (T Real) (U Real) (V Real) (W Real) (X Real) (Y Real) (Z Real) (A1 Real) (B1 Real) (C1 Real) (D1 Real) (E1 Real) (F1 Real) (G1 Real) (H1 Real) (I1 Real) (J1 Real) (K1 Real) (L1 Real) (M1 Real) (N1 Real) (O1 Real) (P1 Real) (Q1 Real) (R1 Real) (S1 Real) (T1 Real) (U1 Real) (V1 Real) (W1 Real) (X1 Real) (Y1 Real) (Z1 Real) (A2 Real) (B2 Real) (C2 Real) (D2 Real) (E2 Real) (F2 Real) (G2 Real) (H2 Real) (I2 Real) (J2 Real) (K2 Real) (L2 Real) (M2 Real) (N2 Real) (O2 Real) (P2 Real) (Q2 Real) (R2 Real) (S2 Real) (T2 Real) (U2 Bool) (V2 Bool) (W2 Bool) (X2 Bool) (Y2 Bool) (Z2 Bool) (A3 Bool) (B3 Bool) (C3 Bool) (D3 Bool) (E3 Bool) (F3 Bool) (G3 Bool) (H3 Real) (I3 Real) (J3 Real) (K3 Real) (L3 Real) (M3 Real) (N3 Real) ) 
    (=>
      (and
        (invariant A
           B
           C
           D
           E
           F
           G
           H
           I
           J
           K
           L
           M
           N
           O
           P
           Q
           R
           S
           T
           U
           V
           W
           X
           Y
           Z
           A1
           B1
           C1
           D1
           E1
           F1
           G1
           H1
           I1
           J1
           K1
           L1
           M1
           N1
           O1
           P1
           Q1
           R1
           S1
           T1
           U1
           V1
           W1
           X1
           Y1
           Z1
           A2
           B2
           C2
           D2
           E2
           F2
           G2
           H2
           I2
           J2
           K2
           L2
           M2
           N2
           O2
           P2
           Q2
           R2
           S2
           T2
           U2
           V2
           W2
           X2
           Y2
           Z2
           A3
           B3
           C3
           D3
           E3
           F3
           G3
           H3
           I3
           J3
           K3
           L3
           M3
           N3)
        (let ((a!1 (or (and V2 (not (= H3 I3)))
               (and W2 (not (= H3 J3)))
               (and X2 (not (= H3 K3)))))
      (a!2 (or (and U2 (not (= I3 H3)))
               (and W2 (not (= I3 J3)))
               (and X2 (not (= I3 K3)))))
      (a!3 (or (and U2 (not (= J3 H3)))
               (and V2 (not (= J3 I3)))
               (and X2 (not (= J3 K3)))))
      (a!4 (or (and U2 (not (= K3 H3)))
               (and V2 (not (= K3 I3)))
               (and W2 (not (= K3 J3))))))
  (and (or (and U2 a!1) (and V2 a!2) (and W2 a!3) (and X2 a!4)) (<= 3.0 L3)))
      )
      false
    )
  )
)

(check-sat)
(exit)
